p tw 160 32801 2 
1 82 
1 83 
1 85 
1 87 
1 89 
1 91 
1 93 
1 96 
1 97 
1 99 
1 101 
1 103 
1 105 
1 107 
1 110 
1 111 
1 113 
1 115 
1 117 
1 119 
1 121 
1 123 
1 126 
1 128 
1 129 
1 131 
1 133 
1 136 
1 137 
1 139 
1 141 
1 144 
1 145 
1 148 
1 150 
1 151 
1 153 
1 155 
1 157 
1 160 
2 81 
2 84 
2 86 
2 88 
2 90 
2 92 
2 94 
2 95 
2 98 
2 100 
2 102 
2 104 
2 106 
2 108 
2 109 
2 112 
2 114 
2 116 
2 118 
2 120 
2 122 
2 124 
2 125 
2 127 
2 130 
2 132 
2 134 
2 135 
2 138 
2 140 
2 142 
2 143 
2 146 
2 147 
2 149 
2 152 
2 154 
2 156 
2 158 
2 159 
3 4 
3 82 
3 84 
3 86 
3 88 
3 90 
3 92 
3 94 
3 96 
3 97 
3 100 
3 102 
3 103 
3 106 
3 107 
3 110 
3 112 
3 113 
3 115 
3 117 
3 119 
3 122 
3 124 
3 126 
3 128 
3 130 
3 132 
3 134 
3 136 
3 138 
3 140 
3 141 
3 144 
3 145 
3 148 
3 150 
3 152 
3 154 
3 156 
3 157 
3 160 
4 81 
4 83 
4 85 
4 87 
4 89 
4 91 
4 93 
4 95 
4 98 
4 99 
4 101 
4 104 
4 105 
4 108 
4 109 
4 111 
4 114 
4 116 
4 118 
4 120 
4 121 
4 123 
4 125 
4 127 
4 129 
4 131 
4 133 
4 135 
4 137 
4 139 
4 142 
4 143 
4 146 
4 147 
4 149 
4 151 
4 153 
4 155 
4 158 
4 159 
5 6 
5 82 
5 83 
5 85 
5 87 
5 90 
5 91 
5 94 
5 95 
5 97 
5 99 
5 102 
5 104 
5 106 
5 107 
5 109 
5 112 
5 113 
5 116 
5 118 
5 120 
5 122 
5 124 
5 126 
5 128 
5 129 
5 132 
5 134 
5 136 
5 137 
5 139 
5 142 
5 143 
5 145 
5 147 
5 150 
5 152 
5 153 
5 155 
5 157 
5 159 
6 81 
6 84 
6 86 
6 88 
6 89 
6 92 
6 93 
6 96 
6 98 
6 100 
6 101 
6 103 
6 105 
6 108 
6 110 
6 111 
6 114 
6 115 
6 117 
6 119 
6 121 
6 123 
6 125 
6 127 
6 130 
6 131 
6 133 
6 135 
6 138 
6 140 
6 141 
6 144 
6 146 
6 148 
6 149 
6 151 
6 154 
6 156 
6 158 
6 160 
7 8 
7 81 
7 84 
7 85 
7 88 
7 90 
7 91 
7 93 
7 96 
7 97 
7 100 
7 101 
7 104 
7 106 
7 108 
7 110 
7 111 
7 113 
7 116 
7 117 
7 119 
7 121 
7 124 
7 126 
7 127 
7 130 
7 132 
7 133 
7 136 
7 138 
7 139 
7 142 
7 143 
7 146 
7 148 
7 149 
7 152 
7 153 
7 155 
7 157 
7 159 
8 82 
8 83 
8 86 
8 87 
8 89 
8 92 
8 94 
8 95 
8 98 
8 99 
8 102 
8 103 
8 105 
8 107 
8 109 
8 112 
8 114 
8 115 
8 118 
8 120 
8 122 
8 123 
8 125 
8 128 
8 129 
8 131 
8 134 
8 135 
8 137 
8 140 
8 141 
8 144 
8 145 
8 147 
8 150 
8 151 
8 154 
8 156 
8 158 
8 160 
9 10 
9 81 
9 83 
9 86 
9 87 
9 90 
9 92 
9 94 
9 96 
9 97 
9 100 
9 102 
9 103 
9 105 
9 107 
9 109 
9 112 
9 114 
9 116 
9 117 
9 119 
9 121 
9 124 
9 125 
9 128 
9 129 
9 131 
9 133 
9 136 
9 138 
9 139 
9 142 
9 143 
9 146 
9 148 
9 150 
9 151 
9 154 
9 155 
9 158 
9 159 
10 82 
10 84 
10 85 
10 88 
10 89 
10 91 
10 93 
10 95 
10 98 
10 99 
10 101 
10 104 
10 106 
10 108 
10 110 
10 111 
10 113 
10 115 
10 118 
10 120 
10 122 
10 123 
10 126 
10 127 
10 130 
10 132 
10 134 
10 135 
10 137 
10 140 
10 141 
10 144 
10 145 
10 147 
10 149 
10 152 
10 153 
10 156 
10 157 
10 160 
11 12 
11 81 
11 84 
11 86 
11 87 
11 90 
11 91 
11 93 
11 96 
11 98 
11 99 
11 102 
11 103 
11 106 
11 107 
11 109 
11 111 
11 113 
11 115 
11 117 
11 120 
11 121 
11 123 
11 125 
11 127 
11 129 
11 132 
11 134 
11 136 
11 137 
11 140 
11 142 
11 144 
11 146 
11 148 
11 150 
11 152 
11 153 
11 156 
11 158 
11 159 
12 82 
12 83 
12 85 
12 88 
12 89 
12 92 
12 94 
12 95 
12 97 
12 100 
12 101 
12 104 
12 105 
12 108 
12 110 
12 112 
12 114 
12 116 
12 118 
12 119 
12 122 
12 124 
12 126 
12 128 
12 130 
12 131 
12 133 
12 135 
12 138 
12 139 
12 141 
12 143 
12 145 
12 147 
12 149 
12 151 
12 154 
12 155 
12 157 
12 160 
13 14 
13 81 
13 83 
13 85 
13 88 
13 89 
13 92 
13 93 
13 96 
13 97 
13 100 
13 101 
13 103 
13 106 
13 107 
13 109 
13 112 
13 113 
13 115 
13 118 
13 120 
13 122 
13 123 
13 126 
13 127 
13 129 
13 132 
13 133 
13 135 
13 138 
13 139 
13 142 
13 144 
13 146 
13 147 
13 150 
13 152 
13 154 
13 155 
13 158 
13 160 
14 82 
14 84 
14 86 
14 87 
14 90 
14 91 
14 94 
14 95 
14 98 
14 99 
14 102 
14 104 
14 105 
14 108 
14 110 
14 111 
14 114 
14 116 
14 117 
14 119 
14 121 
14 124 
14 125 
14 128 
14 130 
14 131 
14 134 
14 136 
14 137 
14 140 
14 141 
14 143 
14 145 
14 148 
14 149 
14 151 
14 153 
14 156 
14 157 
14 159 
15 16 
15 81 
15 84 
15 85 
15 87 
15 90 
15 92 
15 94 
15 96 
15 98 
15 100 
15 102 
15 104 
15 106 
15 108 
15 109 
15 112 
15 114 
15 116 
15 117 
15 119 
15 121 
15 123 
15 126 
15 127 
15 129 
15 131 
15 133 
15 135 
15 137 
15 139 
15 141 
15 144 
15 145 
15 147 
15 150 
15 152 
15 153 
15 156 
15 157 
15 160 
16 82 
16 83 
16 86 
16 88 
16 89 
16 91 
16 93 
16 95 
16 97 
16 99 
16 101 
16 103 
16 105 
16 107 
16 110 
16 111 
16 113 
16 115 
16 118 
16 120 
16 122 
16 124 
16 125 
16 128 
16 130 
16 132 
16 134 
16 136 
16 138 
16 140 
16 142 
16 143 
16 146 
16 148 
16 149 
16 151 
16 154 
16 155 
16 158 
16 159 
17 18 
17 81 
17 84 
17 85 
17 88 
17 90 
17 92 
17 94 
17 95 
17 97 
17 99 
17 101 
17 104 
17 105 
17 107 
17 109 
17 112 
17 114 
17 115 
17 117 
17 120 
17 122 
17 123 
17 126 
17 128 
17 130 
17 131 
17 133 
17 136 
17 137 
17 140 
17 141 
17 144 
17 146 
17 148 
17 149 
17 152 
17 153 
17 155 
17 158 
17 159 
18 82 
18 83 
18 86 
18 87 
18 89 
18 91 
18 93 
18 96 
18 98 
18 100 
18 102 
18 103 
18 106 
18 108 
18 110 
18 111 
18 113 
18 116 
18 118 
18 119 
18 121 
18 124 
18 125 
18 127 
18 129 
18 132 
18 134 
18 135 
18 138 
18 139 
18 142 
18 143 
18 145 
18 147 
18 150 
18 151 
18 154 
18 156 
18 157 
18 160 
19 20 
19 82 
19 84 
19 85 
19 88 
19 90 
19 91 
19 94 
19 96 
19 98 
19 99 
19 102 
19 104 
19 105 
19 108 
19 110 
19 111 
19 114 
19 116 
19 118 
19 120 
19 122 
19 123 
19 126 
19 128 
19 129 
19 132 
19 133 
19 136 
19 138 
19 139 
19 142 
19 144 
19 146 
19 148 
19 150 
19 151 
19 154 
19 156 
19 158 
19 160 
20 81 
20 83 
20 86 
20 87 
20 89 
20 92 
20 93 
20 95 
20 97 
20 100 
20 101 
20 103 
20 106 
20 107 
20 109 
20 112 
20 113 
20 115 
20 117 
20 119 
20 121 
20 124 
20 125 
20 127 
20 130 
20 131 
20 134 
20 135 
20 137 
20 140 
20 141 
20 143 
20 145 
20 147 
20 149 
20 152 
20 153 
20 155 
20 157 
20 159 
21 22 
21 81 
21 83 
21 85 
21 87 
21 90 
21 92 
21 93 
21 95 
21 98 
21 99 
21 102 
21 104 
21 106 
21 108 
21 110 
21 112 
21 113 
21 115 
21 117 
21 120 
21 122 
21 123 
21 125 
21 127 
21 130 
21 131 
21 134 
21 136 
21 138 
21 139 
21 141 
21 143 
21 146 
21 148 
21 150 
21 151 
21 154 
21 155 
21 157 
21 160 
22 82 
22 84 
22 86 
22 88 
22 89 
22 91 
22 94 
22 96 
22 97 
22 100 
22 101 
22 103 
22 105 
22 107 
22 109 
22 111 
22 114 
22 116 
22 118 
22 119 
22 121 
22 124 
22 126 
22 128 
22 129 
22 132 
22 133 
22 135 
22 137 
22 140 
22 142 
22 144 
22 145 
22 147 
22 149 
22 152 
22 153 
22 156 
22 158 
22 159 
23 24 
23 82 
23 83 
23 85 
23 87 
23 90 
23 92 
23 94 
23 96 
23 97 
23 99 
23 101 
23 103 
23 106 
23 108 
23 110 
23 112 
23 114 
23 115 
23 118 
23 120 
23 121 
23 124 
23 125 
23 127 
23 129 
23 132 
23 133 
23 136 
23 138 
23 140 
23 141 
23 144 
23 146 
23 147 
23 149 
23 151 
23 153 
23 156 
23 157 
23 159 
24 81 
24 84 
24 86 
24 88 
24 89 
24 91 
24 93 
24 95 
24 98 
24 100 
24 102 
24 104 
24 105 
24 107 
24 109 
24 111 
24 113 
24 116 
24 117 
24 119 
24 122 
24 123 
24 126 
24 128 
24 130 
24 131 
24 134 
24 135 
24 137 
24 139 
24 142 
24 143 
24 145 
24 148 
24 150 
24 152 
24 154 
24 155 
24 158 
24 160 
25 26 
25 81 
25 84 
25 86 
25 88 
25 89 
25 92 
25 93 
25 96 
25 98 
25 100 
25 101 
25 104 
25 105 
25 108 
25 109 
25 112 
25 113 
25 115 
25 118 
25 120 
25 122 
25 124 
25 125 
25 128 
25 129 
25 132 
25 133 
25 136 
25 137 
25 139 
25 141 
25 143 
25 145 
25 148 
25 150 
25 151 
25 153 
25 156 
25 157 
25 159 
26 82 
26 83 
26 85 
26 87 
26 90 
26 91 
26 94 
26 95 
26 97 
26 99 
26 102 
26 103 
26 106 
26 107 
26 110 
26 111 
26 114 
26 116 
26 117 
26 119 
26 121 
26 123 
26 126 
26 127 
26 130 
26 131 
26 134 
26 135 
26 138 
26 140 
26 142 
26 144 
26 146 
26 147 
26 149 
26 152 
26 154 
26 155 
26 158 
26 160 
27 28 
27 82 
27 84 
27 86 
27 88 
27 90 
27 91 
27 93 
27 95 
27 97 
27 100 
27 102 
27 103 
27 105 
27 108 
27 110 
27 112 
27 114 
27 115 
27 118 
27 120 
27 121 
27 123 
27 125 
27 127 
27 130 
27 131 
27 133 
27 136 
27 137 
27 139 
27 142 
27 144 
27 145 
27 147 
27 150 
27 152 
27 154 
27 155 
27 157 
27 159 
28 81 
28 83 
28 85 
28 87 
28 89 
28 92 
28 94 
28 96 
28 98 
28 99 
28 101 
28 104 
28 106 
28 107 
28 109 
28 111 
28 113 
28 116 
28 117 
28 119 
28 122 
28 124 
28 126 
28 128 
28 129 
28 132 
28 134 
28 135 
28 138 
28 140 
28 141 
28 143 
28 146 
28 148 
28 149 
28 151 
28 153 
28 156 
28 158 
28 160 
29 30 
29 82 
29 83 
29 85 
29 88 
29 89 
29 92 
29 93 
29 95 
29 97 
29 100 
29 102 
29 104 
29 106 
29 107 
29 110 
29 111 
29 114 
29 116 
29 117 
29 120 
29 121 
29 123 
29 125 
29 128 
29 129 
29 132 
29 133 
29 135 
29 137 
29 140 
29 141 
29 143 
29 146 
29 148 
29 150 
29 152 
29 154 
29 156 
29 157 
29 159 
30 81 
30 84 
30 86 
30 87 
30 90 
30 91 
30 94 
30 96 
30 98 
30 99 
30 101 
30 103 
30 105 
30 108 
30 109 
30 112 
30 113 
30 115 
30 118 
30 119 
30 122 
30 124 
30 126 
30 127 
30 130 
30 131 
30 134 
30 136 
30 138 
30 139 
30 142 
30 144 
30 145 
30 147 
30 149 
30 151 
30 153 
30 155 
30 158 
30 160 
31 32 
31 82 
31 84 
31 86 
31 88 
31 90 
31 91 
31 94 
31 96 
31 97 
31 100 
31 101 
31 104 
31 106 
31 107 
31 110 
31 111 
31 114 
31 115 
31 117 
31 120 
31 122 
31 124 
31 125 
31 127 
31 129 
31 131 
31 134 
31 135 
31 137 
31 139 
31 141 
31 143 
31 146 
31 147 
31 150 
31 151 
31 153 
31 155 
31 158 
31 160 
32 81 
32 83 
32 85 
32 87 
32 89 
32 92 
32 93 
32 95 
32 98 
32 99 
32 102 
32 103 
32 105 
32 108 
32 109 
32 112 
32 113 
32 116 
32 118 
32 119 
32 121 
32 123 
32 126 
32 128 
32 130 
32 132 
32 133 
32 136 
32 138 
32 140 
32 142 
32 144 
32 145 
32 148 
32 149 
32 152 
32 154 
32 156 
32 157 
32 159 
33 34 
33 81 
33 84 
33 86 
33 87 
33 89 
33 92 
33 93 
33 95 
33 97 
33 99 
33 102 
33 103 
33 105 
33 108 
33 110 
33 111 
33 114 
33 116 
33 117 
33 120 
33 122 
33 124 
33 126 
33 127 
33 129 
33 132 
33 133 
33 136 
33 138 
33 140 
33 141 
33 143 
33 145 
33 147 
33 150 
33 152 
33 153 
33 155 
33 158 
33 160 
34 82 
34 83 
34 85 
34 88 
34 90 
34 91 
34 94 
34 96 
34 98 
34 100 
34 101 
34 104 
34 106 
34 107 
34 109 
34 112 
34 113 
34 115 
34 118 
34 119 
34 121 
34 123 
34 125 
34 128 
34 130 
34 131 
34 134 
34 135 
34 137 
34 139 
34 142 
34 144 
34 146 
34 148 
34 149 
34 151 
34 154 
34 156 
34 157 
34 159 
35 36 
35 82 
35 83 
35 86 
35 88 
35 89 
35 92 
35 94 
35 96 
35 97 
35 99 
35 102 
35 104 
35 105 
35 108 
35 110 
35 112 
35 113 
35 115 
35 117 
35 120 
35 121 
35 123 
35 126 
35 127 
35 129 
35 131 
35 134 
35 135 
35 138 
35 139 
35 142 
35 143 
35 145 
35 148 
35 149 
35 152 
35 153 
35 156 
35 158 
35 159 
36 81 
36 84 
36 85 
36 87 
36 90 
36 91 
36 93 
36 95 
36 98 
36 100 
36 101 
36 103 
36 106 
36 107 
36 109 
36 111 
36 114 
36 116 
36 118 
36 119 
36 122 
36 124 
36 125 
36 128 
36 130 
36 132 
36 133 
36 136 
36 137 
36 140 
36 141 
36 144 
36 146 
36 147 
36 150 
36 151 
36 154 
36 155 
36 157 
36 160 
37 38 
37 82 
37 84 
37 85 
37 88 
37 89 
37 91 
37 93 
37 95 
37 98 
37 99 
37 101 
37 103 
37 106 
37 108 
37 109 
37 112 
37 114 
37 115 
37 117 
37 119 
37 121 
37 124 
37 126 
37 128 
37 129 
37 131 
37 134 
37 136 
37 138 
37 139 
37 141 
37 143 
37 146 
37 147 
37 150 
37 152 
37 154 
37 156 
37 158 
37 159 
38 81 
38 83 
38 86 
38 87 
38 90 
38 92 
38 94 
38 96 
38 97 
38 100 
38 102 
38 104 
38 105 
38 107 
38 110 
38 111 
38 113 
38 116 
38 118 
38 120 
38 122 
38 123 
38 125 
38 127 
38 130 
38 132 
38 133 
38 135 
38 137 
38 140 
38 142 
38 144 
38 145 
38 148 
38 149 
38 151 
38 153 
38 155 
38 157 
38 160 
39 40 
39 82 
39 84 
39 86 
39 87 
39 89 
39 91 
39 94 
39 95 
39 97 
39 100 
39 102 
39 104 
39 106 
39 108 
39 109 
39 112 
39 113 
39 115 
39 118 
39 119 
39 121 
39 123 
39 126 
39 127 
39 129 
39 132 
39 133 
39 136 
39 137 
39 140 
39 141 
39 143 
39 146 
39 148 
39 149 
39 151 
39 154 
39 155 
39 158 
39 160 
40 81 
40 83 
40 85 
40 88 
40 90 
40 92 
40 93 
40 96 
40 98 
40 99 
40 101 
40 103 
40 105 
40 107 
40 110 
40 111 
40 114 
40 116 
40 117 
40 120 
40 122 
40 124 
40 125 
40 128 
40 130 
40 131 
40 134 
40 135 
40 138 
40 139 
40 142 
40 144 
40 145 
40 147 
40 150 
40 152 
40 153 
40 156 
40 157 
40 159 
41 42 
41 81 
41 83 
41 86 
41 88 
41 89 
41 91 
41 93 
41 96 
41 97 
41 99 
41 102 
41 104 
41 105 
41 107 
41 109 
41 112 
41 114 
41 116 
41 117 
41 120 
41 121 
41 124 
41 126 
41 127 
41 130 
41 132 
41 134 
41 136 
41 137 
41 139 
41 141 
41 144 
41 146 
41 147 
41 149 
41 151 
41 154 
41 156 
41 157 
41 160 
42 82 
42 84 
42 85 
42 87 
42 90 
42 92 
42 94 
42 95 
42 98 
42 100 
42 101 
42 103 
42 106 
42 108 
42 110 
42 111 
42 113 
42 115 
42 118 
42 119 
42 122 
42 123 
42 125 
42 128 
42 129 
42 131 
42 133 
42 135 
42 138 
42 140 
42 142 
42 143 
42 145 
42 148 
42 150 
42 152 
42 153 
42 155 
42 158 
42 159 
43 44 
43 81 
43 83 
43 86 
43 88 
43 90 
43 91 
43 94 
43 96 
43 98 
43 99 
43 101 
43 103 
43 106 
43 108 
43 110 
43 112 
43 113 
43 116 
43 117 
43 120 
43 121 
43 123 
43 126 
43 128 
43 130 
43 132 
43 133 
43 135 
43 137 
43 140 
43 141 
43 143 
43 145 
43 147 
43 150 
43 151 
43 154 
43 155 
43 158 
43 159 
44 82 
44 84 
44 85 
44 87 
44 89 
44 92 
44 93 
44 95 
44 97 
44 100 
44 102 
44 104 
44 105 
44 107 
44 109 
44 111 
44 114 
44 115 
44 118 
44 119 
44 122 
44 124 
44 125 
44 127 
44 129 
44 131 
44 134 
44 136 
44 138 
44 139 
44 142 
44 144 
44 146 
44 148 
44 149 
44 152 
44 153 
44 156 
44 157 
44 160 
45 46 
45 82 
45 84 
45 85 
45 87 
45 89 
45 91 
45 93 
45 96 
45 97 
45 100 
45 102 
45 103 
45 106 
45 108 
45 109 
45 112 
45 114 
45 116 
45 117 
45 120 
45 122 
45 123 
45 125 
45 128 
45 130 
45 132 
45 134 
45 135 
45 138 
45 139 
45 141 
45 144 
45 145 
45 148 
45 149 
45 151 
45 153 
45 155 
45 158 
45 159 
46 81 
46 83 
46 86 
46 88 
46 90 
46 92 
46 94 
46 95 
46 98 
46 99 
46 101 
46 104 
46 105 
46 107 
46 110 
46 111 
46 113 
46 115 
46 118 
46 119 
46 121 
46 124 
46 126 
46 127 
46 129 
46 131 
46 133 
46 136 
46 137 
46 140 
46 142 
46 143 
46 146 
46 147 
46 150 
46 152 
46 154 
46 156 
46 157 
46 160 
47 48 
47 82 
47 83 
47 86 
47 87 
47 89 
47 91 
47 94 
47 95 
47 98 
47 100 
47 101 
47 104 
47 105 
47 107 
47 110 
47 112 
47 113 
47 116 
47 117 
47 119 
47 122 
47 123 
47 125 
47 127 
47 130 
47 132 
47 133 
47 136 
47 138 
47 139 
47 141 
47 144 
47 146 
47 147 
47 150 
47 152 
47 153 
47 156 
47 158 
47 159 
48 81 
48 84 
48 85 
48 88 
48 90 
48 92 
48 93 
48 96 
48 97 
48 99 
48 102 
48 103 
48 106 
48 108 
48 109 
48 111 
48 114 
48 115 
48 118 
48 120 
48 121 
48 124 
48 126 
48 128 
48 129 
48 131 
48 134 
48 135 
48 137 
48 140 
48 142 
48 143 
48 145 
48 148 
48 149 
48 151 
48 154 
48 155 
48 157 
48 160 
49 50 
49 82 
49 83 
49 86 
49 88 
49 90 
49 91 
49 93 
49 95 
49 98 
49 100 
49 101 
49 103 
49 106 
49 107 
49 109 
49 112 
49 114 
49 116 
49 117 
49 120 
49 122 
49 123 
49 126 
49 127 
49 129 
49 131 
49 133 
49 136 
49 138 
49 140 
49 142 
49 143 
49 145 
49 148 
49 149 
49 151 
49 153 
49 156 
49 157 
49 160 
50 81 
50 84 
50 85 
50 87 
50 89 
50 92 
50 94 
50 96 
50 97 
50 99 
50 102 
50 104 
50 105 
50 108 
50 110 
50 111 
50 113 
50 115 
50 118 
50 119 
50 121 
50 124 
50 125 
50 128 
50 130 
50 132 
50 134 
50 135 
50 137 
50 139 
50 141 
50 144 
50 146 
50 147 
50 150 
50 152 
50 154 
50 155 
50 158 
50 159 
51 52 
51 81 
51 83 
51 86 
51 87 
51 90 
51 91 
51 94 
51 95 
51 97 
51 100 
51 101 
51 103 
51 105 
51 108 
51 109 
51 111 
51 114 
51 115 
51 118 
51 120 
51 121 
51 123 
51 126 
51 128 
51 130 
51 132 
51 134 
51 135 
51 138 
51 139 
51 141 
51 143 
51 146 
51 148 
51 150 
51 152 
51 153 
51 156 
51 157 
51 160 
52 82 
52 84 
52 85 
52 88 
52 89 
52 92 
52 93 
52 96 
52 98 
52 99 
52 102 
52 104 
52 106 
52 107 
52 110 
52 112 
52 113 
52 116 
52 117 
52 119 
52 122 
52 124 
52 125 
52 127 
52 129 
52 131 
52 133 
52 136 
52 137 
52 140 
52 142 
52 144 
52 145 
52 147 
52 149 
52 151 
52 154 
52 155 
52 158 
52 159 
53 54 
53 82 
53 83 
53 86 
53 87 
53 89 
53 92 
53 93 
53 96 
53 98 
53 100 
53 101 
53 104 
53 106 
53 108 
53 110 
53 112 
53 114 
53 116 
53 118 
53 120 
53 121 
53 124 
53 126 
53 128 
53 130 
53 131 
53 134 
53 136 
53 137 
53 140 
53 142 
53 144 
53 146 
53 148 
53 150 
53 152 
53 153 
53 155 
53 158 
53 160 
54 81 
54 84 
54 85 
54 88 
54 90 
54 91 
54 94 
54 95 
54 97 
54 99 
54 102 
54 103 
54 105 
54 107 
54 109 
54 111 
54 113 
54 115 
54 117 
54 119 
54 122 
54 123 
54 125 
54 127 
54 129 
54 132 
54 133 
54 135 
54 138 
54 139 
54 141 
54 143 
54 145 
54 147 
54 149 
54 151 
54 154 
54 156 
54 157 
54 159 
55 56 
55 82 
55 83 
55 85 
55 87 
55 90 
55 92 
55 93 
55 96 
55 97 
55 100 
55 101 
55 104 
55 105 
55 108 
55 109 
55 111 
55 114 
55 115 
55 117 
55 119 
55 122 
55 123 
55 126 
55 127 
55 130 
55 132 
55 134 
55 136 
55 137 
55 140 
55 142 
55 143 
55 145 
55 147 
55 150 
55 151 
55 154 
55 156 
55 158 
55 159 
56 81 
56 84 
56 86 
56 88 
56 89 
56 91 
56 94 
56 95 
56 98 
56 99 
56 102 
56 103 
56 106 
56 107 
56 110 
56 112 
56 113 
56 116 
56 118 
56 120 
56 121 
56 124 
56 125 
56 128 
56 129 
56 131 
56 133 
56 135 
56 138 
56 139 
56 141 
56 144 
56 146 
56 148 
56 149 
56 152 
56 153 
56 155 
56 157 
56 160 
57 58 
57 81 
57 83 
57 86 
57 88 
57 89 
57 91 
57 94 
57 96 
57 97 
57 99 
57 101 
57 104 
57 106 
57 108 
57 109 
57 111 
57 114 
57 116 
57 118 
57 119 
57 122 
57 123 
57 125 
57 127 
57 129 
57 131 
57 134 
57 136 
57 138 
57 140 
57 141 
57 144 
57 145 
57 148 
57 150 
57 152 
57 154 
57 155 
57 157 
57 159 
58 82 
58 84 
58 85 
58 87 
58 90 
58 92 
58 93 
58 95 
58 98 
58 100 
58 102 
58 103 
58 105 
58 107 
58 110 
58 112 
58 113 
58 115 
58 117 
58 120 
58 121 
58 124 
58 126 
58 128 
58 130 
58 132 
58 133 
58 135 
58 137 
58 139 
58 142 
58 143 
58 146 
58 147 
58 149 
58 151 
58 153 
58 156 
58 158 
58 160 
59 60 
59 81 
59 83 
59 86 
59 87 
59 90 
59 91 
59 93 
59 95 
59 97 
59 99 
59 101 
59 104 
59 106 
59 108 
59 110 
59 112 
59 114 
59 115 
59 117 
59 119 
59 122 
59 124 
59 125 
59 128 
59 129 
59 132 
59 133 
59 135 
59 137 
59 139 
59 142 
59 144 
59 145 
59 148 
59 149 
59 152 
59 154 
59 156 
59 158 
59 160 
60 82 
60 84 
60 85 
60 88 
60 89 
60 92 
60 94 
60 96 
60 98 
60 100 
60 102 
60 103 
60 105 
60 107 
60 109 
60 111 
60 113 
60 116 
60 118 
60 120 
60 121 
60 123 
60 126 
60 127 
60 130 
60 131 
60 134 
60 136 
60 138 
60 140 
60 141 
60 143 
60 146 
60 147 
60 150 
60 151 
60 153 
60 155 
60 157 
60 159 
61 62 
61 82 
61 84 
61 86 
61 87 
61 90 
61 92 
61 93 
61 96 
61 98 
61 99 
61 101 
61 103 
61 105 
61 107 
61 110 
61 112 
61 114 
61 116 
61 118 
61 119 
61 122 
61 123 
61 126 
61 127 
61 129 
61 132 
61 134 
61 135 
61 137 
61 139 
61 141 
61 143 
61 146 
61 148 
61 149 
61 152 
61 154 
61 155 
61 157 
61 159 
62 81 
62 83 
62 85 
62 88 
62 89 
62 91 
62 94 
62 95 
62 97 
62 100 
62 102 
62 104 
62 106 
62 108 
62 109 
62 111 
62 113 
62 115 
62 117 
62 120 
62 121 
62 124 
62 125 
62 128 
62 130 
62 131 
62 133 
62 136 
62 138 
62 140 
62 142 
62 144 
62 145 
62 147 
62 150 
62 151 
62 153 
62 156 
62 158 
62 160 
63 64 
63 82 
63 83 
63 85 
63 88 
63 90 
63 92 
63 94 
63 95 
63 98 
63 100 
63 101 
63 103 
63 105 
63 108 
63 109 
63 111 
63 113 
63 116 
63 117 
63 120 
63 121 
63 124 
63 125 
63 127 
63 129 
63 132 
63 134 
63 136 
63 137 
63 139 
63 141 
63 144 
63 145 
63 148 
63 149 
63 152 
63 154 
63 155 
63 158 
63 160 
64 81 
64 84 
64 86 
64 87 
64 89 
64 91 
64 93 
64 96 
64 97 
64 99 
64 102 
64 104 
64 106 
64 107 
64 110 
64 112 
64 114 
64 115 
64 118 
64 119 
64 122 
64 123 
64 126 
64 128 
64 130 
64 131 
64 133 
64 135 
64 138 
64 140 
64 142 
64 143 
64 146 
64 147 
64 150 
64 151 
64 153 
64 156 
64 157 
64 159 
65 66 
65 81 
65 83 
65 85 
65 88 
65 90 
65 91 
65 93 
65 95 
65 97 
65 100 
65 102 
65 103 
65 105 
65 108 
65 110 
65 112 
65 113 
65 116 
65 118 
65 119 
65 122 
65 124 
65 126 
65 127 
65 129 
65 131 
65 134 
65 135 
65 137 
65 140 
65 141 
65 144 
65 146 
65 148 
65 150 
65 151 
65 153 
65 156 
65 158 
65 159 
66 82 
66 84 
66 86 
66 87 
66 89 
66 92 
66 94 
66 96 
66 98 
66 99 
66 101 
66 104 
66 106 
66 107 
66 109 
66 111 
66 114 
66 115 
66 117 
66 120 
66 121 
66 123 
66 125 
66 128 
66 130 
66 132 
66 133 
66 136 
66 138 
66 139 
66 142 
66 143 
66 145 
66 147 
66 149 
66 152 
66 154 
66 155 
66 157 
66 160 
67 68 
67 81 
67 84 
67 85 
67 88 
67 89 
67 92 
67 94 
67 95 
67 97 
67 99 
67 101 
67 103 
67 106 
67 107 
67 110 
67 112 
67 114 
67 116 
67 118 
67 119 
67 121 
67 123 
67 125 
67 127 
67 130 
67 132 
67 134 
67 136 
67 137 
67 139 
67 142 
67 143 
67 145 
67 148 
67 150 
67 151 
67 153 
67 156 
67 158 
67 160 
68 82 
68 83 
68 86 
68 87 
68 90 
68 91 
68 93 
68 96 
68 98 
68 100 
68 102 
68 104 
68 105 
68 108 
68 109 
68 111 
68 113 
68 115 
68 117 
68 120 
68 122 
68 124 
68 126 
68 128 
68 129 
68 131 
68 133 
68 135 
68 138 
68 140 
68 141 
68 144 
68 146 
68 147 
68 149 
68 152 
68 154 
68 155 
68 157 
68 159 
69 70 
69 82 
69 84 
69 86 
69 87 
69 90 
69 92 
69 93 
69 95 
69 97 
69 99 
69 101 
69 104 
69 106 
69 107 
69 109 
69 111 
69 113 
69 116 
69 118 
69 120 
69 121 
69 124 
69 126 
69 127 
69 130 
69 131 
69 133 
69 135 
69 138 
69 139 
69 141 
69 144 
69 145 
69 148 
69 150 
69 151 
69 154 
69 156 
69 158 
69 159 
70 81 
70 83 
70 85 
70 88 
70 89 
70 91 
70 94 
70 96 
70 98 
70 100 
70 102 
70 103 
70 105 
70 108 
70 110 
70 112 
70 114 
70 115 
70 117 
70 119 
70 122 
70 123 
70 125 
70 128 
70 129 
70 132 
70 134 
70 136 
70 137 
70 140 
70 142 
70 143 
70 146 
70 147 
70 149 
70 152 
70 153 
70 155 
70 157 
70 160 
71 72 
71 81 
71 83 
71 85 
71 87 
71 89 
71 91 
71 94 
71 96 
71 98 
71 100 
71 102 
71 103 
71 106 
71 107 
71 110 
71 111 
71 114 
71 115 
71 118 
71 120 
71 122 
71 124 
71 126 
71 127 
71 130 
71 131 
71 133 
71 136 
71 137 
71 139 
71 141 
71 143 
71 145 
71 148 
71 149 
71 152 
71 154 
71 156 
71 158 
71 159 
72 82 
72 84 
72 86 
72 88 
72 90 
72 92 
72 93 
72 95 
72 97 
72 99 
72 101 
72 104 
72 105 
72 108 
72 109 
72 112 
72 113 
72 116 
72 117 
72 119 
72 121 
72 123 
72 125 
72 128 
72 129 
72 132 
72 134 
72 135 
72 138 
72 140 
72 142 
72 144 
72 146 
72 147 
72 150 
72 151 
72 153 
72 155 
72 157 
72 160 
73 74 
73 81 
73 84 
73 85 
73 87 
73 89 
73 91 
73 94 
73 95 
73 98 
73 100 
73 101 
73 104 
73 105 
73 107 
73 110 
73 112 
73 114 
73 115 
73 117 
73 120 
73 121 
73 124 
73 126 
73 127 
73 129 
73 132 
73 134 
73 135 
73 138 
73 140 
73 142 
73 144 
73 145 
73 148 
73 150 
73 151 
73 154 
73 155 
73 157 
73 159 
74 82 
74 83 
74 86 
74 88 
74 90 
74 92 
74 93 
74 96 
74 97 
74 99 
74 102 
74 103 
74 106 
74 108 
74 109 
74 111 
74 113 
74 116 
74 118 
74 119 
74 122 
74 123 
74 125 
74 128 
74 130 
74 131 
74 133 
74 136 
74 137 
74 139 
74 141 
74 143 
74 146 
74 147 
74 149 
74 152 
74 153 
74 156 
74 158 
74 160 
75 76 
75 81 
75 84 
75 85 
75 87 
75 90 
75 91 
75 93 
75 96 
75 97 
75 100 
75 101 
75 104 
75 105 
75 107 
75 110 
75 112 
75 113 
75 116 
75 118 
75 120 
75 121 
75 123 
75 125 
75 128 
75 129 
75 131 
75 134 
75 136 
75 138 
75 140 
75 141 
75 143 
75 145 
75 147 
75 149 
75 152 
75 154 
75 156 
75 158 
75 160 
76 82 
76 83 
76 86 
76 88 
76 89 
76 92 
76 94 
76 95 
76 98 
76 99 
76 102 
76 103 
76 106 
76 108 
76 109 
76 111 
76 114 
76 115 
76 117 
76 119 
76 122 
76 124 
76 126 
76 127 
76 130 
76 132 
76 133 
76 135 
76 137 
76 139 
76 142 
76 144 
76 146 
76 148 
76 150 
76 151 
76 153 
76 155 
76 157 
76 159 
77 78 
77 82 
77 83 
77 85 
77 88 
77 90 
77 91 
77 93 
77 96 
77 98 
77 99 
77 102 
77 104 
77 105 
77 107 
77 109 
77 112 
77 114 
77 115 
77 118 
77 119 
77 121 
77 124 
77 125 
77 127 
77 130 
77 132 
77 133 
77 135 
77 138 
77 140 
77 141 
77 143 
77 145 
77 148 
77 150 
77 152 
77 153 
77 155 
77 158 
77 160 
78 81 
78 84 
78 86 
78 87 
78 89 
78 92 
78 94 
78 95 
78 97 
78 100 
78 101 
78 103 
78 106 
78 108 
78 110 
78 111 
78 113 
78 116 
78 117 
78 120 
78 122 
78 123 
78 126 
78 128 
78 129 
78 131 
78 134 
78 136 
78 137 
78 139 
78 142 
78 144 
78 146 
78 147 
78 149 
78 151 
78 154 
78 156 
78 157 
78 159 
79 80 
79 81 
79 83 
79 86 
79 88 
79 90 
79 92 
79 93 
79 95 
79 98 
79 100 
79 102 
79 104 
79 106 
79 107 
79 110 
79 111 
79 114 
79 115 
79 118 
79 119 
79 121 
79 123 
79 126 
79 128 
79 129 
79 132 
79 134 
79 136 
79 138 
79 139 
79 141 
79 144 
79 145 
79 147 
79 149 
79 151 
79 153 
79 155 
79 158 
79 159 
80 82 
80 84 
80 85 
80 87 
80 89 
80 91 
80 94 
80 96 
80 97 
80 99 
80 101 
80 103 
80 105 
80 108 
80 109 
80 112 
80 113 
80 116 
80 117 
80 120 
80 122 
80 124 
80 125 
80 127 
80 130 
80 131 
80 133 
80 135 
80 137 
80 140 
80 142 
80 143 
80 146 
80 148 
80 150 
80 152 
80 154 
80 156 
80 157 
80 160 
81 82 
83 84 
85 86 
87 88 
89 90 
91 92 
93 94 
95 96 
97 98 
99 100 
101 102 
103 104 
105 106 
107 108 
109 110 
111 112 
113 114 
115 116 
117 118 
119 120 
121 122 
123 124 
125 126 
127 128 
129 130 
131 132 
133 134 
135 136 
137 138 
139 140 
141 142 
143 144 
145 146 
147 148 
149 150 
151 152 
153 154 
155 156 
157 158 
159 160 
